240 300 199 164 180 196 159 171 194 175 171 181 174 173 150 195 197 180 162 200 167 173 157 171 162 164 199 161 157 189 175 200 196 173 163 200 193 172 170 161 171 166 192 169 163 166 163 184 196 200 157 187 172 164 183 158 153 181 169 185 194 168 184 164 165 171 163 158 167 158 169 162 199 185 181 186 150 194 170 171 193 151 182 190 166 164 198 194 169 192 178 163 159 187 177 175 182 164 157 174 172 150 186 195 185 167 181 159 185 175 180 178 176 187 192 166 150 189 159 170 154 162 183 164 173 184 163 154 198 195 178 195 195 164 189 153 155 194 187 190 168 192 192 195 178 157 185 178 197 195 172 150 181 179 189 153 162 176 157 185 170 160 153 189 199 192 166 178 160 153 192 178 169 158 197 197 165 182 199 161 150 196 187 181 174 175 184 161 151 165 196 196 200 173 185 198 189 150 200 199 178 192 177 197 200 173 167 164 179 191 150 179 186 187 159 159 186 167 170 161 157 190 157 156 162 166 179 151 191 178 174 194 194 150 164 193 199 182 182 177 197 182 